language ESSENCE' 1.0
letting lastdx=101
letting cage be [
[16,11,16,12,16,0,0, 0,0, 0,0],
[30,3,16,4,16,4,15,5,15,0,0],
[13,4,12,3,12,0,0, 0,0, 0,0],
[36,16,2,16,1,15,1,0,0, 0,0],
[11,7,5,7,4,0,0, 0,0, 0,0],
[19,4,8,5,8,5,7,4,7,0,0],
[31,16,13,16,14,15,14,15,15,0,0],
[20,12,6,13,6,0,0, 0,0, 0,0],
[13,14,4,0,0, 0,0, 0,0, 0,0],
[44,9,4,9,3,10,3,10,4,0,0],
[16,1,12,2,12,2,13,0,0, 0,0],
[36,2,1,1,1,1,2,2,2,0,0],
[11,10,11,0,0, 0,0, 0,0, 0,0],
[21,1,5,1,6,2,6,2,7,0,0],
[1,3,6,0,0, 0,0, 0,0, 0,0],
[3,10,5,9,5,0,0, 0,0, 0,0],
[32,5,12,5,13,6,13,0,0, 0,0],
[54,2,4,2,5,3,5,3,4,0,0],
[13,5,3,0,0, 0,0, 0,0, 0,0],
[8,6,15,0,0, 0,0, 0,0, 0,0],
[41,14,16,14,15,13,15,13,16,0,0],
[11,9,13,0,0, 0,0, 0,0, 0,0],
[27,8,11,7,11,6,11,0,0, 0,0],
[6,15,6,0,0, 0,0, 0,0, 0,0],
[4,9,10,0,0, 0,0, 0,0, 0,0],
[33,14,5,15,5,15,4,0,0, 0,0],
[31,1,9,1,8,1,7,0,0, 0,0],
[26,15,2,14,2,14,3,13,3,0,0],
[35,13,10,13,9,14,9,15,9,16,9],
[25,6,14,5,14,0,0, 0,0, 0,0],
[7,6,9,5,9,0,0, 0,0, 0,0],
[14,12,4,12,3,0,0, 0,0, 0,0],
[11,11,3,0,0, 0,0, 0,0, 0,0],
[50,16,6,16,5,16,4,16,3,15,3],
[28,15,13,15,12,15,11,15,10,0,0],
[5,7,1,7,2,0,0, 0,0, 0,0],
[9,14,12,0,0, 0,0, 0,0, 0,0],
[21,9,14,9,15,10,15,0,0, 0,0],
[15,5,5,0,0, 0,0, 0,0, 0,0],
[9,5,10,0,0, 0,0, 0,0, 0,0],
[18,14,11,14,10,0,0, 0,0, 0,0],
[19,9,16,10,16,8,16,0,0, 0,0],
[37,8,1,8,2,8,3,0,0, 0,0],
[49,8,14,7,14,7,13,8,13,8,12],
[36,4,13,3,13,3,14,4,14,3,15],
[32,7,8,7,9,8,9,8,10,0,0],
[15,13,11,0,0, 0,0, 0,0, 0,0],
[21,5,11,4,11,3,11,0,0, 0,0],
[22,8,6,8,7,0,0, 0,0, 0,0],
[15,15,7,15,8,0,0, 0,0, 0,0],
[25,16,15,16,16,15,16,0,0, 0,0],
[5,8,8,0,0, 0,0, 0,0, 0,0],
[47,1,13,1,14,1,15,1,16,2,16],
[55,3,8,3,7,3,9,2,9,2,8],
[12,11,10,0,0, 0,0, 0,0, 0,0],
[7,10,10,0,0, 0,0, 0,0, 0,0],
[5,13,1,14,1,0,0, 0,0, 0,0],
[21,12,7,11,7,11,6,0,0, 0,0],
[21,16,10,16,11,16,12,0,0, 0,0],
[13,7,6,0,0, 0,0, 0,0, 0,0],
[12,13,5,13,4,0,0, 0,0, 0,0],
[14,9,7,0,0, 0,0, 0,0, 0,0],
[3,2,3,0,0, 0,0, 0,0, 0,0],
[26,12,11,12,10,12,9,0,0, 0,0],
[20,2,14,2,15,0,0, 0,0, 0,0],
[42,7,7,6,7,6,8,6,6,6,5],
[14,6,4,0,0, 0,0, 0,0, 0,0],
[33,10,12,11,12,11,11,12,12,0,0],
[14,11,2,0,0, 0,0, 0,0, 0,0],
[18,7,16,7,15,8,15,0,0, 0,0],
[6,9,12,9,11,0,0, 0,0, 0,0],
[15,9,1,0,0, 0,0, 0,0, 0,0],
[51,10,6,9,6,10,7,10,8,0,0],
[29,7,10,6,10,0,0, 0,0, 0,0],
[9,7,3,6,3,0,0, 0,0, 0,0],
[11,10,1,11,1,0,0, 0,0, 0,0],
[13,3,2,0,0, 0,0, 0,0, 0,0],
[44,5,1,5,2,4,2,4,1,3,1],
[14,10,9,0,0, 0,0, 0,0, 0,0],
[8,6,16,5,16,0,0, 0,0, 0,0],
[22,16,7,16,8,0,0, 0,0, 0,0],
[13,11,8,11,9,0,0, 0,0, 0,0],
[6,1,3,1,4,0,0, 0,0, 0,0],
[48,1,10,1,11,2,11,2,10,3,10],
[12,3,3,0,0, 0,0, 0,0, 0,0],
[20,4,3,4,4,5,4,0,0, 0,0],
[35,4,5,4,6,5,6,0,0, 0,0],
[19,4,9,4,10,0,0, 0,0, 0,0],
[17,6,1,6,2,0,0, 0,0, 0,0],
[22,6,12,7,12,0,0, 0,0, 0,0],
[16,8,4,8,5,0,0, 0,0, 0,0],
[5,9,2,10,2,0,0, 0,0, 0,0],
[22,9,8,9,9,0,0, 0,0, 0,0],
[40,10,13,11,13,12,13,13,13,13,12],
[48,10,14,11,14,11,15,12,15,12,14],
[8,11,4,0,0, 0,0, 0,0, 0,0],
[17,11,5,12,5,0,0, 0,0, 0,0],
[20,12,1,12,2,13,2,0,0, 0,0],
[26,12,8,13,8,14,8,0,0, 0,0],
[20,13,7,14,7,14,6,0,0, 0,0],
[10,13,14,0,0, 0,0, 0,0, 0,0],
[23,14,13,14,14,0,0, 0,0, 0,0]
]
